c 
c MolecularSimulation 0.9.3
c Simulation written: Jan 13 2012 -- 15:17:57
c Test: Lipton
c Input: ./data/testCNF/SWEEP_R9_K3_N16_M144_S002.cnf
c 
s UNSATISFIABLE
v 0
c algorithmTime:  9
c solutionMemory: 0
c mixCount:       594
c extractCount:   432
c appendCount:    32
c splitCount:     16
c spliceCount:    0
c purifyCount:    145
c 
